p tw 28 42
1 14
1 20
1 22
2 10
2 13
2 17
3 7
3 15
3 20
4 6
4 8
4 27
5 12
5 15
5 21
6 16
6 25
7 27
7 28
8 11
8 25
9 14
9 16
9 21
10 11
10 13
11 26
12 21
12 26
13 24
14 22
15 19
16 17
17 22
18 19
18 26
18 28
19 28
20 24
23 24
23 25
23 27
